(set-logic QF_BV)
(declare-fun _substvar_2714_ () (_ BitVec 1))
(declare-fun _substvar_2679_ () (_ BitVec 1))
(declare-fun _substvar_2619_ () (_ BitVec 1))
(declare-fun _substvar_2661_ () (_ BitVec 1))
(declare-fun _substvar_2732_ () (_ BitVec 1))
(declare-fun _substvar_2445_ () (_ BitVec 1))
(declare-fun _substvar_2533_ () (_ BitVec 1))
(declare-fun _substvar_2675_ () (_ BitVec 1))
(declare-fun _substvar_2405_ () (_ BitVec 1))
(declare-fun _substvar_2831_ () (_ BitVec 1))
(declare-fun _substvar_2453_ () (_ BitVec 1))
(declare-fun _substvar_2606_ () (_ BitVec 1))
(declare-fun _substvar_674_ () (_ BitVec 160))
(declare-fun _substvar_2647_ () (_ BitVec 1))
(declare-fun _substvar_2570_ () (_ BitVec 1))
(declare-fun _substvar_2840_ () (_ BitVec 1))
(declare-fun _substvar_2691_ () (_ BitVec 1))
(declare-fun _substvar_2756_ () (_ BitVec 1))
(declare-fun _substvar_2461_ () (_ BitVec 1))
(declare-fun _substvar_2415_ () (_ BitVec 1))
(declare-fun _substvar_2541_ () (_ BitVec 1))
(declare-fun _substvar_2364_ () (_ BitVec 1))
(declare-fun _substvar_2700_ () (_ BitVec 1))
(declare-fun _substvar_2549_ () (_ BitVec 1))
(declare-fun _substvar_2425_ () (_ BitVec 1))
(declare-fun _substvar_2916_ () (_ BitVec 1))
(declare-fun _substvar_2815_ () (_ BitVec 1))
(declare-fun _substvar_2469_ () (_ BitVec 1))
(declare-fun _substvar_2702_ () (_ BitVec 1))
(declare-fun _substvar_2558_ () (_ BitVec 1))
(declare-fun _substvar_2748_ () (_ BitVec 1))
(declare-fun _substvar_2705_ () (_ BitVec 1))
(declare-fun _substvar_2363_ () (_ BitVec 80))
(declare-fun _substvar_2821_ () (_ BitVec 1))
(declare-fun _substvar_2697_ () (_ BitVec 1))
(declare-fun _substvar_2695_ () (_ BitVec 1))
(declare-fun _substvar_2381_ () (_ BitVec 1))
(declare-fun _substvar_2704_ () (_ BitVec 80))
(declare-fun _substvar_2617_ () (_ BitVec 1))
(declare-fun _substvar_2693_ () (_ BitVec 1))
(declare-fun _substvar_2593_ () (_ BitVec 1))
(declare-fun _substvar_2758_ () (_ BitVec 1))
(declare-fun _substvar_2724_ () (_ BitVec 1))
(declare-fun _substvar_2799_ () (_ BitVec 1))
(declare-fun _substvar_2711_ () (_ BitVec 1))
(declare-fun _substvar_2582_ () (_ BitVec 1))
(declare-fun _substvar_2393_ () (_ BitVec 1))
(declare-fun _substvar_2708_ () (_ BitVec 1))
(declare-fun _substvar_2807_ () (_ BitVec 1))
(declare-fun _substvar_2740_ () (_ BitVec 1))
(assert (let ((?v_84 (bvmul _substvar_674_ (concat (_ bv0 80) _substvar_2704_)))) (let ( (?v_2 ((_ extract 79 79) _substvar_2704_))) (let ( (?v_83 (bvmul (concat _substvar_2617_ _substvar_2363_) (concat (ite (= (_ bv1 1) ?v_2) (_ bv1 1) (_ bv0 1)) _substvar_2704_)))) (not (= (bvand (bvnot (bvand (bvand (bvand (bvand (bvand (bvand (bvand (bvand (bvand (bvand (bvand (bvand (bvand (bvand (bvand (bvand (bvand (bvand (bvand (bvand (bvand (bvand (bvand (bvand (bvand (bvand (bvand (bvand (bvand (bvand (bvand (bvand (bvand (bvand (bvand (bvand (bvand (bvand (bvand (bvand (bvand (bvand (bvand (bvand (bvand (bvand (bvand (bvand (bvand (bvand (bvand (bvand (bvand (bvand (bvand (bvand (bvand (bvand (bvand (bvand (bvand (bvand (bvand (bvand (bvand (bvand (bvand (bvand (bvand (bvand (bvand (bvand (bvand (bvand (bvand (bvand (bvand (bvand (bvnot (_ bv0 1)) (bvnot (_ bv0 1))) (bvnot (_ bv0 1))) (bvnot (_ bv0 1))) (bvnot (_ bv0 1))) (bvnot (_ bv0 1))) (bvnot (_ bv0 1))) (bvnot (_ bv0 1))) (bvnot (_ bv0 1))) (bvnot (_ bv0 1))) (bvnot (_ bv0 1))) (bvnot (_ bv0 1))) (bvnot (_ bv0 1))) (bvnot (_ bv0 1))) (bvnot (_ bv0 1))) (bvnot (_ bv0 1))) (bvnot (_ bv0 1))) (bvnot (_ bv0 1))) (bvnot (_ bv0 1))) (bvnot (_ bv0 1))) (bvnot (_ bv0 1))) (bvnot (_ bv0 1))) (bvnot (_ bv0 1))) (bvnot (_ bv0 1))) (bvnot (_ bv0 1))) (bvnot (_ bv0 1))) (bvnot (_ bv0 1))) (bvnot (_ bv0 1))) (bvnot (_ bv0 1))) (bvnot (_ bv0 1))) (bvnot (_ bv0 1))) (bvnot (_ bv0 1))) (bvnot (_ bv0 1))) (bvnot (_ bv0 1))) (bvnot (_ bv0 1))) (bvnot (_ bv0 1))) (bvnot (_ bv0 1))) (bvnot (_ bv0 1))) (bvnot (_ bv0 1))) (bvnot (_ bv0 1))) (bvnot (_ bv0 1))) (bvnot (_ bv0 1))) (bvnot (_ bv0 1))) (bvnot (_ bv0 1))) (bvnot (_ bv0 1))) (bvnot (_ bv0 1))) (bvnot (_ bv0 1))) (bvnot (_ bv0 1))) (bvnot (_ bv0 1))) (bvnot (_ bv0 1))) (bvnot (_ bv0 1))) (bvnot (_ bv0 1))) (bvnot (_ bv0 1))) (bvnot (_ bv0 1))) (bvnot (_ bv0 1))) (bvnot (_ bv0 1))) (bvnot (_ bv0 1))) (bvnot (_ bv0 1))) (bvnot (_ bv0 1))) (bvnot (_ bv0 1))) (bvnot (_ bv0 1))) (bvnot (_ bv0 1))) (bvnot (_ bv0 1))) (bvnot (_ bv0 1))) (bvnot (_ bv0 1))) (bvnot (_ bv0 1))) (bvnot (_ bv0 1))) (bvnot (_ bv0 1))) (bvnot (_ bv0 1))) (bvnot (_ bv0 1))) (bvnot (_ bv0 1))) (bvnot (_ bv0 1))) (bvnot (_ bv0 1))) (bvnot (_ bv0 1))) (bvnot (_ bv0 1))) (bvnot (_ bv0 1))) (bvnot (_ bv0 1))) (bvnot (_ bv0 1))) (ite (= ((_ extract 80 80) ?v_83) ((_ extract 79 79) ?v_83)) (_ bv1 1) (_ bv0 1)))) (bvand (bvand (bvand (bvand (bvand (bvand (bvand (bvand (bvand (bvand (bvand (bvand (bvand (bvand (bvand (bvand (bvand (bvand (bvand (bvand (bvand (bvand (bvand (bvand (bvand (bvand (bvand (bvand (bvand (bvand (bvand (bvand (bvand (bvand (bvand (bvand (bvand (bvand (bvand (bvand (bvand (bvand (bvand (bvand (bvand (bvand _substvar_2679_ (ite (= ((_ extract 125 125) ?v_84) (_ bv0 1)) (_ bv1 1) (_ bv0 1))) _substvar_2799_) _substvar_2807_) _substvar_2815_) _substvar_2821_) _substvar_2831_) _substvar_2840_) _substvar_2533_) _substvar_2541_) _substvar_2549_) _substvar_2381_) _substvar_2393_) _substvar_2405_) _substvar_2415_) _substvar_2425_) _substvar_2758_) _substvar_2445_) _substvar_2453_) _substvar_2461_) _substvar_2469_) _substvar_2691_) _substvar_2693_) _substvar_2695_) _substvar_2697_) _substvar_2364_) _substvar_2700_) _substvar_2702_) _substvar_2705_) _substvar_2708_) _substvar_2711_) _substvar_2558_) _substvar_2570_) _substvar_2582_) _substvar_2593_) _substvar_2606_) _substvar_2619_) _substvar_2916_) _substvar_2647_) _substvar_2661_) _substvar_2675_) _substvar_2714_) _substvar_2724_) _substvar_2732_) _substvar_2740_) _substvar_2748_) _substvar_2756_)) (_ bv0 1)))))))
(check-sat)
(exit)
